c Arquivo convertido de dwt__607.mtx
p edge 607 2262
e 1 2
e 1 116
e 1 117
e 2 3
e 2 34
e 2 36
e 2 116
e 2 117
e 2 118
e 2 149
e 3 4
e 3 34
e 3 36
e 3 37
e 3 117
e 3 118
e 3 119
e 4 5
e 4 36
e 4 37
e 4 38
e 4 118
e 4 119
e 4 120
e 5 6
e 5 37
e 5 38
e 5 62
e 5 119
e 5 120
e 5 121
e 6 7
e 6 38
e 6 39
e 6 62
e 6 120
e 6 121
e 6 122
e 7 8
e 7 39
e 7 40
e 7 62
e 7 121
e 7 122
e 7 123
e 8 9
e 8 39
e 8 40
e 8 41
e 8 122
e 8 123
e 8 124
e 9 10
e 9 40
e 9 41
e 9 42
e 9 123
e 9 124
e 9 125
e 10 11
e 10 41
e 10 42
e 10 124
e 10 125
e 10 126
e 10 153
e 11 125
e 11 126
e 12 13
e 12 127
e 12 128
e 13 14
e 13 42
e 13 44
e 13 127
e 13 128
e 13 129
e 13 153
e 14 15
e 14 42
e 14 44
e 14 45
e 14 128
e 14 129
e 14 130
e 15 16
e 15 44
e 15 45
e 15 46
e 15 129
e 15 130
e 15 131
e 16 17
e 16 45
e 16 46
e 16 70
e 16 130
e 16 131
e 16 132
e 17 18
e 17 46
e 17 47
e 17 70
e 17 131
e 17 132
e 17 133
e 18 19
e 18 47
e 18 48
e 18 70
e 18 132
e 18 133
e 18 134
e 19 20
e 19 47
e 19 48
e 19 49
e 19 133
e 19 134
e 19 135
e 20 21
e 20 48
e 20 49
e 20 50
e 20 134
e 20 135
e 20 136
e 21 22
e 21 49
e 21 50
e 21 135
e 21 136
e 21 137
e 21 157
e 22 136
e 22 137
e 23 24
e 23 138
e 23 139
e 24 25
e 24 50
e 24 52
e 24 138
e 24 139
e 24 140
e 24 157
e 25 26
e 25 50
e 25 52
e 25 53
e 25 139
e 25 140
e 25 141
e 26 27
e 26 52
e 26 53
e 26 54
e 26 140
e 26 141
e 26 142
e 27 28
e 27 53
e 27 54
e 27 78
e 27 141
e 27 142
e 27 143
e 28 29
e 28 54
e 28 55
e 28 78
e 28 142
e 28 143
e 28 144
e 29 30
e 29 55
e 29 56
e 29 78
e 29 143
e 29 144
e 29 145
e 30 31
e 30 55
e 30 56
e 30 57
e 30 144
e 30 145
e 30 146
e 31 32
e 31 34
e 31 56
e 31 57
e 31 145
e 31 146
e 31 147
e 32 33
e 32 34
e 32 57
e 32 146
e 32 147
e 32 148
e 32 149
e 33 147
e 33 148
e 34 35
e 34 36
e 34 57
e 34 117
e 34 147
e 34 149
e 35 36
e 35 57
e 35 58
e 35 59
e 35 81
e 35 149
e 35 150
e 36 37
e 36 58
e 36 59
e 36 60
e 37 38
e 37 59
e 37 60
e 37 61
e 37 119
e 37 151
e 38 60
e 38 61
e 38 62
e 39 40
e 39 62
e 39 63
e 39 64
e 40 41
e 40 63
e 40 64
e 40 65
e 40 123
e 40 152
e 41 42
e 41 43
e 41 64
e 41 65
e 41 66
e 42 43
e 42 44
e 42 125
e 42 128
e 42 153
e 43 44
e 43 65
e 43 66
e 43 67
e 43 153
e 43 154
e 44 45
e 44 66
e 44 67
e 44 68
e 45 46
e 45 67
e 45 68
e 45 69
e 45 130
e 45 155
e 46 68
e 46 69
e 46 70
e 47 48
e 47 70
e 47 71
e 47 72
e 48 49
e 48 71
e 48 72
e 48 73
e 48 134
e 48 156
e 49 50
e 49 51
e 49 72
e 49 73
e 49 74
e 50 51
e 50 52
e 50 136
e 50 139
e 50 157
e 51 52
e 51 73
e 51 74
e 51 75
e 51 157
e 51 158
e 52 53
e 52 74
e 52 75
e 52 76
e 53 54
e 53 75
e 53 76
e 53 77
e 53 141
e 53 159
e 54 76
e 54 77
e 54 78
e 55 56
e 55 78
e 55 79
e 55 80
e 56 57
e 56 79
e 56 80
e 56 81
e 56 145
e 56 160
e 57 58
e 57 80
e 57 81
e 58 59
e 58 81
e 58 82
e 58 83
e 58 105
e 58 150
e 58 161
e 59 60
e 59 82
e 59 83
e 59 84
e 60 61
e 60 83
e 60 84
e 60 85
e 60 151
e 60 163
e 61 62
e 61 84
e 61 85
e 61 86
e 62 63
e 62 85
e 62 86
e 62 87
e 63 64
e 63 86
e 63 87
e 63 88
e 64 65
e 64 87
e 64 88
e 64 89
e 64 152
e 64 167
e 65 66
e 65 88
e 65 89
e 65 90
e 66 67
e 66 89
e 66 90
e 66 91
e 66 154
e 66 169
e 67 68
e 67 90
e 67 91
e 67 92
e 68 69
e 68 91
e 68 92
e 68 93
e 68 155
e 68 171
e 69 70
e 69 92
e 69 93
e 69 94
e 70 71
e 70 93
e 70 94
e 70 95
e 71 72
e 71 94
e 71 95
e 71 96
e 72 73
e 72 95
e 72 96
e 72 97
e 72 156
e 72 175
e 73 74
e 73 96
e 73 97
e 73 98
e 74 75
e 74 97
e 74 98
e 74 99
e 74 158
e 74 177
e 75 76
e 75 98
e 75 99
e 75 100
e 76 77
e 76 99
e 76 100
e 76 108
e 76 159
e 76 179
e 77 78
e 77 108
e 77 113
e 78 79
e 78 113
e 78 114
e 78 115
e 79 80
e 79 112
e 79 115
e 80 81
e 80 104
e 80 105
e 80 112
e 80 160
e 80 183
e 81 82
e 81 104
e 81 105
e 82 83
e 82 105
e 83 84
e 84 85
e 85 86
e 86 87
e 87 88
e 88 89
e 89 90
e 90 91
e 91 92
e 92 93
e 93 94
e 94 95
e 95 96
e 96 97
e 97 98
e 98 99
e 99 100
e 100 101
e 100 108
e 101 106
e 101 108
e 102 106
e 102 107
e 102 110
e 103 104
e 103 107
e 103 112
e 104 105
e 104 112
e 106 108
e 106 109
e 106 110
e 107 110
e 107 111
e 107 112
e 108 109
e 108 113
e 109 110
e 109 113
e 110 111
e 110 113
e 110 114
e 110 115
e 111 112
e 111 115
e 112 115
e 113 114
e 114 115
e 116 117
e 116 185
e 116 186
e 117 118
e 117 149
e 117 185
e 117 186
e 117 187
e 117 218
e 118 119
e 118 186
e 118 187
e 118 188
e 119 120
e 119 151
e 119 187
e 119 188
e 119 189
e 119 221
e 120 121
e 120 188
e 120 189
e 120 190
e 121 122
e 121 189
e 121 190
e 121 191
e 122 123
e 122 190
e 122 191
e 122 192
e 123 124
e 123 152
e 123 191
e 123 192
e 123 193
e 123 224
e 124 125
e 124 192
e 124 193
e 124 194
e 125 126
e 125 153
e 125 193
e 125 194
e 125 195
e 125 226
e 126 194
e 126 195
e 127 128
e 127 196
e 127 197
e 128 129
e 128 153
e 128 196
e 128 197
e 128 198
e 128 226
e 129 130
e 129 197
e 129 198
e 129 199
e 130 131
e 130 155
e 130 198
e 130 199
e 130 200
e 130 229
e 131 132
e 131 199
e 131 200
e 131 201
e 132 133
e 132 200
e 132 201
e 132 202
e 133 134
e 133 201
e 133 202
e 133 203
e 134 135
e 134 156
e 134 202
e 134 203
e 134 204
e 134 232
e 135 136
e 135 203
e 135 204
e 135 205
e 136 137
e 136 157
e 136 204
e 136 205
e 136 206
e 136 234
e 137 205
e 137 206
e 138 139
e 138 207
e 138 208
e 139 140
e 139 157
e 139 207
e 139 208
e 139 209
e 139 234
e 140 141
e 140 208
e 140 209
e 140 210
e 141 142
e 141 159
e 141 209
e 141 210
e 141 211
e 141 237
e 142 143
e 142 210
e 142 211
e 142 212
e 143 144
e 143 211
e 143 212
e 143 213
e 144 145
e 144 212
e 144 213
e 144 214
e 145 146
e 145 160
e 145 213
e 145 214
e 145 215
e 145 240
e 146 147
e 146 214
e 146 215
e 146 216
e 147 148
e 147 149
e 147 215
e 147 216
e 147 217
e 147 218
e 148 216
e 148 217
e 149 150
e 149 186
e 149 216
e 149 218
e 149 219
e 150 161
e 150 219
e 150 242
e 151 163
e 151 221
e 151 244
e 152 167
e 152 224
e 152 248
e 153 154
e 153 194
e 153 197
e 153 226
e 153 227
e 154 169
e 154 227
e 154 250
e 155 171
e 155 229
e 155 252
e 156 175
e 156 232
e 156 256
e 157 158
e 157 205
e 157 208
e 157 234
e 157 235
e 158 177
e 158 235
e 158 258
e 159 179
e 159 237
e 159 260
e 160 183
e 160 240
e 160 264
e 161 162
e 161 184
e 161 242
e 161 243
e 161 265
e 162 163
e 162 242
e 162 243
e 162 244
e 163 164
e 163 243
e 163 244
e 163 245
e 164 165
e 164 244
e 164 245
e 164 246
e 165 166
e 165 245
e 165 246
e 165 247
e 166 167
e 166 246
e 166 247
e 166 248
e 167 168
e 167 247
e 167 248
e 167 249
e 168 169
e 168 248
e 168 249
e 168 250
e 169 170
e 169 249
e 169 250
e 169 251
e 170 171
e 170 250
e 170 251
e 170 252
e 171 172
e 171 251
e 171 252
e 171 253
e 172 173
e 172 252
e 172 253
e 172 254
e 173 174
e 173 253
e 173 254
e 173 255
e 174 175
e 174 254
e 174 255
e 174 256
e 175 176
e 175 255
e 175 256
e 175 257
e 176 177
e 176 256
e 176 257
e 176 258
e 177 178
e 177 257
e 177 258
e 177 259
e 178 179
e 178 258
e 178 259
e 178 260
e 179 180
e 179 259
e 179 260
e 179 261
e 180 181
e 180 260
e 180 261
e 180 262
e 181 182
e 181 261
e 181 262
e 181 263
e 182 183
e 182 262
e 182 263
e 182 264
e 183 184
e 183 263
e 183 264
e 183 265
e 184 242
e 184 264
e 184 265
e 185 186
e 185 266
e 185 267
e 186 187
e 186 218
e 186 266
e 186 267
e 186 268
e 186 299
e 187 188
e 187 218
e 187 219
e 187 220
e 187 221
e 187 267
e 187 268
e 187 269
e 188 189
e 188 220
e 188 221
e 188 222
e 188 268
e 188 269
e 188 270
e 189 190
e 189 221
e 189 222
e 189 269
e 189 270
e 189 271
e 190 191
e 190 222
e 190 223
e 190 246
e 190 270
e 190 271
e 190 272
e 191 192
e 191 223
e 191 224
e 191 271
e 191 272
e 191 273
e 192 193
e 192 223
e 192 224
e 192 225
e 192 272
e 192 273
e 192 274
e 193 194
e 193 224
e 193 225
e 193 226
e 193 227
e 193 273
e 193 274
e 193 275
e 194 195
e 194 226
e 194 274
e 194 275
e 194 276
e 194 303
e 195 275
e 195 276
e 196 197
e 196 277
e 196 278
e 197 198
e 197 226
e 197 277
e 197 278
e 197 279
e 197 303
e 198 199
e 198 226
e 198 227
e 198 228
e 198 229
e 198 278
e 198 279
e 198 280
e 199 200
e 199 228
e 199 229
e 199 230
e 199 279
e 199 280
e 199 281
e 200 201
e 200 229
e 200 230
e 200 280
e 200 281
e 200 282
e 201 202
e 201 230
e 201 231
e 201 254
e 201 281
e 201 282
e 201 283
e 202 203
e 202 231
e 202 232
e 202 282
e 202 283
e 202 284
e 203 204
e 203 231
e 203 232
e 203 233
e 203 283
e 203 284
e 203 285
e 204 205
e 204 232
e 204 233
e 204 234
e 204 235
e 204 284
e 204 285
e 204 286
e 205 206
e 205 234
e 205 285
e 205 286
e 205 287
e 205 307
e 206 286
e 206 287
e 207 208
e 207 288
e 207 289
e 208 209
e 208 234
e 208 288
e 208 289
e 208 290
e 208 307
e 209 210
e 209 234
e 209 235
e 209 236
e 209 237
e 209 289
e 209 290
e 209 291
e 210 211
e 210 236
e 210 237
e 210 238
e 210 290
e 210 291
e 210 292
e 211 212
e 211 237
e 211 238
e 211 291
e 211 292
e 211 293
e 212 213
e 212 238
e 212 239
e 212 262
e 212 292
e 212 293
e 212 294
e 213 214
e 213 239
e 213 240
e 213 293
e 213 294
e 213 295
e 214 215
e 214 239
e 214 240
e 214 241
e 214 294
e 214 295
e 214 296
e 215 216
e 215 218
e 215 219
e 215 240
e 215 241
e 215 295
e 215 296
e 215 297
e 216 217
e 216 218
e 216 296
e 216 297
e 216 298
e 216 299
e 217 297
e 217 298
e 218 219
e 218 220
e 218 241
e 218 267
e 218 297
e 218 299
e 219 220
e 219 241
e 219 242
e 219 243
e 219 265
e 219 299
e 219 300
e 220 221
e 220 242
e 220 243
e 220 244
e 221 222
e 221 243
e 221 244
e 221 245
e 221 269
e 221 301
e 222 244
e 222 245
e 222 246
e 223 224
e 223 246
e 223 247
e 223 248
e 224 225
e 224 247
e 224 248
e 224 249
e 224 273
e 224 302
e 225 226
e 225 227
e 225 248
e 225 249
e 225 250
e 226 227
e 226 228
e 226 275
e 226 278
e 226 303
e 227 228
e 227 249
e 227 250
e 227 251
e 227 303
e 227 304
e 228 229
e 228 250
e 228 251
e 228 252
e 229 230
e 229 251
e 229 252
e 229 253
e 229 280
e 229 305
e 230 252
e 230 253
e 230 254
e 231 232
e 231 254
e 231 255
e 231 256
e 232 233
e 232 255
e 232 256
e 232 257
e 232 284
e 232 306
e 233 234
e 233 235
e 233 256
e 233 257
e 233 258
e 234 235
e 234 236
e 234 286
e 234 289
e 234 307
e 235 236
e 235 257
e 235 258
e 235 259
e 235 307
e 235 308
e 236 237
e 236 258
e 236 259
e 236 260
e 237 238
e 237 259
e 237 260
e 237 261
e 237 291
e 237 309
e 238 260
e 238 261
e 238 262
e 239 240
e 239 262
e 239 263
e 239 264
e 240 241
e 240 263
e 240 264
e 240 265
e 240 295
e 240 310
e 241 242
e 241 264
e 241 265
e 242 243
e 242 265
e 242 300
e 242 311
e 242 312
e 242 334
e 243 244
e 243 311
e 243 312
e 243 313
e 244 245
e 244 301
e 244 312
e 244 313
e 244 314
e 245 246
e 245 313
e 245 314
e 245 315
e 246 247
e 246 314
e 246 315
e 246 316
e 247 248
e 247 315
e 247 316
e 247 317
e 248 249
e 248 302
e 248 316
e 248 317
e 248 318
e 249 250
e 249 317
e 249 318
e 249 319
e 250 251
e 250 304
e 250 318
e 250 319
e 250 320
e 251 252
e 251 319
e 251 320
e 251 321
e 252 253
e 252 305
e 252 320
e 252 321
e 252 322
e 253 254
e 253 321
e 253 322
e 253 323
e 254 255
e 254 322
e 254 323
e 254 324
e 255 256
e 255 323
e 255 324
e 255 325
e 256 257
e 256 306
e 256 324
e 256 325
e 256 326
e 257 258
e 257 325
e 257 326
e 257 327
e 258 259
e 258 308
e 258 326
e 258 327
e 258 328
e 259 260
e 259 327
e 259 328
e 259 329
e 260 261
e 260 309
e 260 328
e 260 329
e 260 330
e 261 262
e 261 329
e 261 330
e 261 331
e 262 263
e 262 330
e 262 331
e 262 332
e 263 264
e 263 331
e 263 332
e 263 333
e 264 265
e 264 310
e 264 332
e 264 333
e 264 334
e 265 311
e 265 333
e 265 334
e 266 267
e 266 335
e 266 336
e 267 268
e 267 299
e 267 335
e 267 336
e 267 337
e 267 368
e 268 269
e 268 336
e 268 337
e 268 338
e 269 270
e 269 301
e 269 337
e 269 338
e 269 339
e 269 370
e 270 271
e 270 338
e 270 339
e 270 340
e 271 272
e 271 339
e 271 340
e 271 341
e 272 273
e 272 340
e 272 341
e 272 342
e 273 274
e 273 302
e 273 341
e 273 342
e 273 343
e 273 374
e 274 275
e 274 342
e 274 343
e 274 344
e 275 276
e 275 303
e 275 343
e 275 344
e 275 345
e 275 376
e 276 344
e 276 345
e 277 278
e 277 346
e 277 347
e 278 279
e 278 303
e 278 346
e 278 347
e 278 348
e 278 376
e 279 280
e 279 347
e 279 348
e 279 349
e 280 281
e 280 305
e 280 348
e 280 349
e 280 350
e 280 378
e 281 282
e 281 349
e 281 350
e 281 351
e 282 283
e 282 350
e 282 351
e 282 352
e 283 284
e 283 351
e 283 352
e 283 353
e 284 285
e 284 306
e 284 352
e 284 353
e 284 354
e 284 382
e 285 286
e 285 353
e 285 354
e 285 355
e 286 287
e 286 307
e 286 354
e 286 355
e 286 356
e 286 384
e 287 355
e 287 356
e 288 289
e 288 357
e 288 358
e 289 290
e 289 307
e 289 357
e 289 358
e 289 359
e 289 384
e 290 291
e 290 358
e 290 359
e 290 360
e 291 292
e 291 309
e 291 359
e 291 360
e 291 361
e 291 386
e 292 293
e 292 360
e 292 361
e 292 362
e 293 294
e 293 361
e 293 362
e 293 363
e 294 295
e 294 362
e 294 363
e 294 364
e 295 296
e 295 310
e 295 363
e 295 364
e 295 365
e 295 390
e 296 297
e 296 364
e 296 365
e 296 366
e 297 298
e 297 299
e 297 365
e 297 366
e 297 367
e 297 368
e 298 366
e 298 367
e 299 300
e 299 336
e 299 366
e 299 368
e 299 392
e 300 311
e 300 392
e 300 395
e 301 313
e 301 370
e 301 397
e 302 317
e 302 374
e 302 401
e 303 304
e 303 344
e 303 347
e 303 376
e 303 393
e 304 319
e 304 393
e 304 403
e 305 321
e 305 378
e 305 405
e 306 325
e 306 382
e 306 409
e 307 308
e 307 355
e 307 358
e 307 384
e 307 394
e 308 327
e 308 394
e 308 411
e 309 329
e 309 386
e 309 413
e 310 333
e 310 390
e 310 417
e 311 312
e 311 334
e 311 395
e 312 313
e 313 314
e 313 397
e 314 315
e 315 316
e 316 317
e 317 318
e 317 401
e 318 319
e 319 320
e 319 403
e 320 321
e 321 322
e 321 405
e 322 323
e 323 324
e 324 325
e 325 326
e 325 409
e 326 327
e 327 328
e 327 411
e 328 329
e 329 330
e 329 413
e 330 331
e 331 332
e 332 333
e 333 334
e 333 417
e 335 336
e 336 337
e 336 368
e 336 369
e 337 338
e 337 368
e 337 369
e 337 370
e 338 339
e 338 369
e 338 370
e 338 371
e 339 340
e 339 370
e 339 371
e 339 372
e 340 341
e 340 371
e 340 372
e 340 373
e 341 342
e 341 372
e 341 373
e 341 374
e 342 343
e 342 373
e 342 374
e 342 375
e 343 344
e 343 374
e 343 375
e 343 376
e 344 345
e 344 375
e 344 376
e 346 347
e 347 348
e 347 376
e 347 377
e 348 349
e 348 376
e 348 377
e 348 378
e 349 350
e 349 377
e 349 378
e 349 379
e 350 351
e 350 378
e 350 379
e 350 380
e 351 352
e 351 379
e 351 380
e 351 381
e 352 353
e 352 380
e 352 381
e 352 382
e 353 354
e 353 381
e 353 382
e 353 383
e 354 355
e 354 382
e 354 383
e 354 384
e 355 356
e 355 383
e 355 384
e 357 358
e 358 359
e 358 384
e 358 385
e 359 360
e 359 384
e 359 385
e 359 386
e 360 361
e 360 385
e 360 386
e 360 387
e 361 362
e 361 386
e 361 387
e 361 388
e 362 363
e 362 387
e 362 388
e 362 389
e 363 364
e 363 388
e 363 389
e 363 390
e 364 365
e 364 389
e 364 390
e 364 391
e 365 366
e 365 368
e 365 390
e 365 391
e 366 367
e 366 368
e 366 391
e 368 369
e 368 391
e 368 392
e 369 370
e 369 392
e 369 395
e 369 396
e 369 397
e 370 371
e 370 396
e 370 397
e 370 398
e 371 372
e 371 397
e 371 398
e 371 399
e 372 373
e 372 398
e 372 399
e 372 400
e 373 374
e 373 399
e 373 400
e 373 401
e 374 375
e 374 400
e 374 401
e 374 402
e 375 376
e 375 393
e 375 401
e 375 402
e 375 403
e 376 377
e 376 393
e 377 378
e 377 393
e 377 403
e 377 404
e 377 405
e 378 379
e 378 404
e 378 405
e 378 406
e 379 380
e 379 405
e 379 406
e 379 407
e 380 381
e 380 406
e 380 407
e 380 408
e 381 382
e 381 407
e 381 408
e 381 409
e 382 383
e 382 408
e 382 409
e 382 410
e 383 384
e 383 394
e 383 409
e 383 410
e 383 411
e 384 385
e 384 394
e 385 386
e 385 394
e 385 411
e 385 412
e 385 413
e 386 387
e 386 412
e 386 413
e 386 414
e 387 388
e 387 413
e 387 414
e 387 415
e 388 389
e 388 414
e 388 415
e 388 416
e 389 390
e 389 415
e 389 416
e 389 417
e 390 391
e 390 416
e 390 417
e 390 418
e 391 392
e 391 395
e 391 417
e 391 418
e 392 395
e 392 396
e 392 418
e 393 402
e 393 403
e 393 404
e 394 410
e 394 411
e 394 412
e 395 396
e 395 418
e 395 419
e 395 420
e 395 442
e 396 397
e 396 419
e 396 420
e 396 421
e 397 398
e 397 420
e 397 421
e 397 422
e 398 399
e 398 421
e 398 422
e 398 423
e 399 400
e 399 422
e 399 423
e 399 424
e 400 401
e 400 423
e 400 424
e 400 425
e 401 402
e 401 424
e 401 425
e 401 426
e 402 403
e 402 425
e 402 426
e 402 427
e 403 404
e 403 426
e 403 427
e 403 428
e 404 405
e 404 427
e 404 428
e 404 429
e 405 406
e 405 428
e 405 429
e 405 430
e 406 407
e 406 429
e 406 430
e 406 431
e 407 408
e 407 430
e 407 431
e 407 432
e 408 409
e 408 431
e 408 432
e 408 433
e 409 410
e 409 432
e 409 433
e 409 434
e 410 411
e 410 433
e 410 434
e 410 435
e 411 412
e 411 434
e 411 435
e 411 436
e 412 413
e 412 435
e 412 436
e 412 437
e 413 414
e 413 436
e 413 437
e 413 438
e 414 415
e 414 437
e 414 438
e 414 439
e 415 416
e 415 438
e 415 439
e 415 440
e 416 417
e 416 439
e 416 440
e 416 441
e 417 418
e 417 440
e 417 441
e 417 442
e 418 419
e 418 441
e 418 442
e 419 420
e 419 442
e 420 421
e 421 422
e 422 423
e 423 424
e 424 425
e 425 426
e 426 427
e 427 428
e 428 429
e 429 430
e 430 431
e 431 432
e 432 433
e 433 434
e 434 435
e 435 436
e 436 437
e 437 438
e 438 439
e 439 440
e 440 441
e 441 442
e 443 444
e 443 476
e 443 477
e 444 445
e 444 476
e 444 477
e 444 478
e 445 446
e 445 477
e 445 478
e 445 479
e 446 447
e 446 478
e 446 479
e 446 480
e 447 448
e 447 479
e 447 480
e 447 481
e 448 449
e 448 480
e 448 481
e 448 482
e 449 450
e 449 481
e 449 482
e 449 483
e 450 451
e 450 482
e 450 483
e 450 484
e 451 452
e 451 483
e 451 484
e 451 485
e 452 453
e 452 484
e 452 485
e 452 486
e 453 485
e 453 486
e 454 455
e 454 487
e 454 488
e 455 456
e 455 487
e 455 488
e 455 489
e 456 457
e 456 488
e 456 489
e 456 490
e 457 458
e 457 489
e 457 490
e 457 491
e 458 459
e 458 490
e 458 491
e 458 492
e 459 460
e 459 491
e 459 492
e 459 493
e 460 461
e 460 492
e 460 493
e 460 494
e 461 462
e 461 493
e 461 494
e 461 495
e 462 463
e 462 494
e 462 495
e 462 496
e 463 464
e 463 495
e 463 496
e 463 497
e 464 496
e 464 497
e 465 466
e 465 498
e 465 499
e 466 467
e 466 498
e 466 499
e 466 500
e 467 468
e 467 499
e 467 500
e 467 501
e 468 469
e 468 500
e 468 501
e 468 502
e 469 470
e 469 501
e 469 502
e 469 503
e 470 471
e 470 502
e 470 503
e 470 504
e 471 472
e 471 503
e 471 504
e 471 505
e 472 473
e 472 504
e 472 505
e 472 506
e 473 474
e 473 505
e 473 506
e 473 507
e 474 475
e 474 506
e 474 507
e 474 508
e 475 507
e 475 508
e 476 477
e 476 509
e 476 510
e 477 478
e 477 509
e 477 510
e 477 511
e 478 479
e 478 510
e 478 511
e 478 512
e 479 480
e 479 511
e 479 512
e 479 513
e 480 481
e 480 512
e 480 513
e 480 514
e 481 482
e 481 513
e 481 514
e 481 515
e 482 483
e 482 514
e 482 515
e 482 516
e 483 484
e 483 515
e 483 516
e 483 517
e 484 485
e 484 516
e 484 517
e 484 518
e 485 486
e 485 517
e 485 518
e 485 519
e 486 518
e 486 519
e 487 488
e 487 520
e 487 521
e 488 489
e 488 520
e 488 521
e 488 522
e 489 490
e 489 521
e 489 522
e 489 523
e 490 491
e 490 522
e 490 523
e 490 524
e 491 492
e 491 523
e 491 524
e 491 525
e 492 493
e 492 524
e 492 525
e 492 526
e 493 494
e 493 525
e 493 526
e 493 527
e 494 495
e 494 526
e 494 527
e 494 528
e 495 496
e 495 527
e 495 528
e 495 529
e 496 497
e 496 528
e 496 529
e 496 530
e 497 529
e 497 530
e 498 499
e 498 531
e 498 532
e 499 500
e 499 531
e 499 532
e 499 533
e 500 501
e 500 532
e 500 533
e 500 534
e 501 502
e 501 533
e 501 534
e 501 535
e 502 503
e 502 534
e 502 535
e 502 536
e 503 504
e 503 535
e 503 536
e 503 537
e 504 505
e 504 536
e 504 537
e 504 538
e 505 506
e 505 537
e 505 538
e 505 539
e 506 507
e 506 538
e 506 539
e 506 540
e 507 508
e 507 539
e 507 540
e 507 541
e 508 540
e 508 541
e 509 510
e 509 542
e 509 543
e 510 511
e 510 542
e 510 543
e 510 544
e 511 512
e 511 543
e 511 544
e 511 545
e 512 513
e 512 544
e 512 545
e 512 546
e 513 514
e 513 545
e 513 546
e 513 547
e 514 515
e 514 546
e 514 547
e 514 548
e 515 516
e 515 547
e 515 548
e 515 549
e 516 517
e 516 548
e 516 549
e 516 550
e 517 518
e 517 549
e 517 550
e 517 551
e 518 519
e 518 550
e 518 551
e 518 552
e 519 551
e 519 552
e 520 521
e 520 553
e 520 554
e 521 522
e 521 553
e 521 554
e 521 555
e 522 523
e 522 554
e 522 555
e 522 556
e 523 524
e 523 555
e 523 556
e 523 557
e 524 525
e 524 556
e 524 557
e 524 558
e 525 526
e 525 557
e 525 558
e 525 559
e 526 527
e 526 558
e 526 559
e 526 560
e 527 528
e 527 559
e 527 560
e 527 561
e 528 529
e 528 560
e 528 561
e 528 562
e 529 530
e 529 561
e 529 562
e 529 563
e 530 562
e 530 563
e 531 532
e 531 564
e 531 565
e 532 533
e 532 564
e 532 565
e 532 566
e 533 534
e 533 565
e 533 566
e 533 567
e 534 535
e 534 566
e 534 567
e 534 568
e 535 536
e 535 567
e 535 568
e 535 569
e 536 537
e 536 568
e 536 569
e 536 570
e 537 538
e 537 569
e 537 570
e 537 571
e 538 539
e 538 570
e 538 571
e 538 572
e 539 540
e 539 571
e 539 572
e 539 573
e 540 541
e 540 572
e 540 573
e 540 574
e 541 573
e 541 574
e 542 543
e 542 575
e 542 576
e 543 544
e 543 575
e 543 576
e 543 577
e 544 545
e 544 576
e 544 577
e 544 578
e 545 546
e 545 577
e 545 578
e 545 579
e 546 547
e 546 578
e 546 579
e 546 580
e 547 548
e 547 579
e 547 580
e 547 581
e 548 549
e 548 580
e 548 581
e 548 582
e 549 550
e 549 581
e 549 582
e 549 583
e 550 551
e 550 582
e 550 583
e 550 584
e 551 552
e 551 583
e 551 584
e 551 585
e 552 584
e 552 585
e 553 554
e 553 586
e 553 587
e 554 555
e 554 586
e 554 587
e 554 588
e 555 556
e 555 587
e 555 588
e 555 589
e 556 557
e 556 588
e 556 589
e 556 590
e 557 558
e 557 589
e 557 590
e 557 591
e 558 559
e 558 590
e 558 591
e 558 592
e 559 560
e 559 591
e 559 592
e 559 593
e 560 561
e 560 592
e 560 593
e 560 594
e 561 562
e 561 593
e 561 594
e 561 595
e 562 563
e 562 594
e 562 595
e 562 596
e 563 595
e 563 596
e 564 565
e 564 597
e 564 598
e 565 566
e 565 597
e 565 598
e 565 599
e 566 567
e 566 598
e 566 599
e 566 600
e 567 568
e 567 599
e 567 600
e 567 601
e 568 569
e 568 600
e 568 601
e 568 602
e 569 570
e 569 601
e 569 602
e 569 603
e 570 571
e 570 602
e 570 603
e 570 604
e 571 572
e 571 603
e 571 604
e 571 605
e 572 573
e 572 604
e 572 605
e 572 606
e 573 574
e 573 605
e 573 606
e 573 607
e 574 606
e 574 607
e 575 576
e 576 577
e 577 578
e 578 579
e 579 580
e 580 581
e 581 582
e 582 583
e 583 584
e 584 585
e 586 587
e 587 588
e 588 589
e 589 590
e 590 591
e 591 592
e 592 593
e 593 594
e 594 595
e 595 596
e 597 598
e 598 599
e 599 600
e 600 601
e 601 602
e 602 603
e 603 604
e 604 605
e 605 606
e 606 607
